NAME : n150w140.005.926.tour
COMMENT : Length = 926
COMMENT : Found by LKH [Keld Helsgaun] Tue May  2 05:48:48 2017
TYPE : TOUR
DIMENSION : 151
TOUR_SECTION
1
71
109
84
56
12
26
78
13
112
98
99
106
103
59
23
41
122
28
5
60
2
88
143
25
108
16
65
113
86
133
118
144
101
7
102
29
150
149
148
22
127
6
3
35
120
21
11
142
45
128
20
111
53
135
79
42
126
15
129
50
115
49
47
34
90
117
95
139
74
4
123
48
52
91
70
81
121
73
9
8
110
96
76
14
93
124
138
27
116
87
38
85
18
147
36
40
146
33
54
72
141
37
107
67
10
136
125
62
55
44
75
131
83
30
61
100
97
32
105
57
89
66
19
63
114
92
58
80
43
82
31
77
132
39
17
69
137
130
94
24
104
145
64
68
134
51
151
46
140
119
-1
EOF
